
Gurobi 9.5.2 (linux64) logging started Sat 28 Oct 2023 12:06:19

Set parameter LogFile to value "/home/mitch/Documents/Thesis Test Folder/ieee_cis_solar/Opt Results/columnGeneration/GurobiLogs/Gurobi Log 3.txt"
Set parameter LogToConsole to value 0
Set parameter MIPGap to value 0.01
Set parameter TimeLimit to value 60
Set parameter Threads to value 8
Gurobi Optimizer version 9.5.2 build v9.5.2rc0 (linux64)
Thread count: 6 physical cores, 12 logical processors, using up to 8 threads
Optimize a model with 29515 rows, 84890 columns and 5499629 nonzeros
Model fingerprint: 0x51861be5
Variable types: 11520 continuous, 73370 integer (73370 binary)
Coefficient statistics:
  Matrix range     [1e+00, 7e+02]
  Objective range  [2e-05, 2e+02]
  Bounds range     [1e+00, 1e+00]
  RHS range        [1e+00, 7e+02]
Presolve removed 12599 rows and 22899 columns (presolve time = 5s) ...
Sparsify removed 2706749 nonzeros (82%)
Presolve removed 24177 rows and 43704 columns (presolve time = 10s) ...
Presolve removed 24178 rows and 38432 columns
Presolve time: 10.12s
Presolved: 5337 rows, 46458 columns, 595725 nonzeros
Variable types: 0 continuous, 46458 integer (44066 binary)

Root simplex log...

Iteration    Objective       Primal Inf.    Dual Inf.      Time
       0   -4.4813059e+05   3.053294e+04   0.000000e+00     11s
    1096    1.6330598e+04   0.000000e+00   0.000000e+00     11s

Root relaxation: objective 1.633060e+04, 1096 iterations, 0.07 seconds (0.15 work units)

    Nodes    |    Current Node    |     Objective Bounds      |     Work
 Expl Unexpl |  Obj  Depth IntInf | Incumbent    BestBd   Gap | It/Node Time

     0     0 16330.5976    0  304          - 16330.5976      -     -   10s
     0     0 16344.9009    0  328          - 16344.9009      -     -   12s
     0     0 16346.9764    0  342          - 16346.9764      -     -   12s
     0     0 16347.1378    0  345          - 16347.1378      -     -   12s
     0     0 16347.1848    0  346          - 16347.1848      -     -   13s
     0     0 16347.5686    0  348          - 16347.5686      -     -   13s
     0     0 16348.1266    0  362          - 16348.1266      -     -   13s
     0     0 16348.1297    0  365          - 16348.1297      -     -   13s
     0     0 16348.4004    0  347          - 16348.4004      -     -   13s
     0     0 16348.4041    0  347          - 16348.4041      -     -   13s
     0     0 16348.4231    0  348          - 16348.4231      -     -   13s
     0     0 16350.9616    0  344          - 16350.9616      -     -   14s
     0     0 16351.3503    0  346          - 16351.3503      -     -   15s
     0     0 16352.9681    0  352          - 16352.9681      -     -   18s
     0     0 16353.0613    0  360          - 16353.0613      -     -   19s
     0     0 16353.0618    0  358          - 16353.0618      -     -   19s
     0     0 16356.8173    0  382          - 16356.8173      -     -   22s
     0     0 16357.1117    0  369          - 16357.1117      -     -   22s
     0     0 16357.1322    0  367          - 16357.1322      -     -   22s
     0     0 16357.1328    0  367          - 16357.1328      -     -   23s
     0     0 16357.2577    0  374          - 16357.2577      -     -   23s
     0     0 16357.2649    0  358          - 16357.2649      -     -   24s
     0     0 16357.6052    0  413          - 16357.6052      -     -   25s
     0     0 16357.7542    0  390          - 16357.7542      -     -   25s
     0     0 16357.7557    0  392          - 16357.7557      -     -   25s
     0     0 16357.9067    0  453          - 16357.9067      -     -   26s
     0     0 16357.9206    0  458          - 16357.9206      -     -   26s
     0     0 16357.9217    0  459          - 16357.9217      -     -   26s
     0     0 16357.9630    0  448          - 16357.9630      -     -   27s
     0     0 16357.9718    0  437          - 16357.9718      -     -   27s
     0     0 16357.9723    0  439          - 16357.9723      -     -   27s
     0     0 16358.0046    0  468          - 16358.0046      -     -   28s
     0     0 16358.0046    0  468          - 16358.0046      -     -   28s
H    0     0                    17325.681717 16358.0046  5.59%     -   31s
H    0     0                    16751.013220 16364.3410  2.31%     -   35s
     0     2 16364.3410    0  468 16751.0132 16364.3410  2.31%     -   35s
H   29    30                    16748.776330 16364.3410  2.30%   103   37s
H   31    30                    16697.932175 16364.3410  2.00%  98.8   37s
H  128   115                    16696.740960 16364.3410  1.99%  50.2   39s
   221   212 16368.3508   23  436 16696.7410 16364.3410  1.99%  37.9   40s
  1560  1587 16391.9498  126  370 16696.7410 16364.3410  1.99%  19.9   45s
H 2848  2739                    16615.987430 16364.3410  1.51%  14.3   48s
  3655  3694 16418.2674  404  241 16615.9874 16364.3410  1.51%  12.6   50s
  6045  6018 16440.0451  778  233 16615.9874 16364.3410  1.51%  10.4   55s

Cutting planes:
  Gomory: 12
  Cover: 46
  Implied bound: 22
  MIR: 104
  StrongCG: 3
  GUB cover: 64
  Inf proof: 5
  Zero half: 30
  RLT: 18
  Relax-and-lift: 6

Explored 7437 nodes (76710 simplex iterations) in 60.03 seconds (125.77 work units)
Thread count was 8 (of 12 available processors)

Solution count 6: 16616 16696.7 16697.9 ... 17325.7

Time limit reached
Best objective 1.661598742986e+04, best bound 1.636434101502e+04, gap 1.5145%
